
Gurobi 11.0.3 (linux64) logging started Tue 19 Nov 2024 12:51:04 AM CST

Set parameter LogFile to value "/home/dlcole3/graph_abstraction/hierarchical_graphs/git_storage/CS1/HP_low_reserves/gurobi_logs/serial/logfile_ST27_7.log"

Gurobi 11.0.3 (linux64) logging started Tue 19 Nov 2024 12:53:59 AM CST

Set parameter LogFile to value "/home/dlcole3/graph_abstraction/hierarchical_graphs/git_storage/CS1/HP_low_reserves/gurobi_logs/serial/logfile_ST27_7.log"
Gurobi Optimizer version 11.0.3 build v11.0.3rc0 (linux64 - "Ubuntu 18.04.3 LTS")

CPU model: Intel(R) Xeon(R) CPU E5-2698 v4 @ 2.20GHz, instruction set [SSE2|AVX|AVX2]
Thread count: 40 physical cores, 80 logical processors, using up to 20 threads

Optimize a model with 29168 rows, 50688 columns and 136175 nonzeros
Model fingerprint: 0x134f3822
Variable types: 46944 continuous, 3744 integer (3744 binary)
Coefficient statistics:
  Matrix range     [6e-01, 2e+04]
  Objective range  [2e+00, 2e+04]
  Bounds range     [5e-02, 2e+05]
  RHS range        [5e-02, 7e+03]
Presolve removed 13860 rows and 38404 columns
Presolve time: 0.37s
Presolved: 15308 rows, 12284 columns, 65120 nonzeros
Variable types: 9239 continuous, 3045 integer (3045 binary)
Found heuristic solution: objective 166090.12121
Found heuristic solution: objective 158575.37991
Found heuristic solution: objective 127147.99319

Root relaxation: objective 6.905949e+03, 7467 iterations, 0.31 seconds (0.21 work units)

    Nodes    |    Current Node    |     Objective Bounds      |     Work
 Expl Unexpl |  Obj  Depth IntInf | Incumbent    BestBd   Gap | It/Node Time

     0     0 6905.94897    0    2 127147.993 6905.94897  94.6%     -    1s
H    0     0                    127147.99316 6905.94897  94.6%     -    1s
H    0     0                    6905.9568686 6905.94897  0.00%     -    1s

Explored 1 nodes (7467 simplex iterations) in 1.67 seconds (1.10 work units)
Thread count was 20 (of 80 available processors)

Solution count 5: 6905.96 6905.96 127148 ... 166090

Optimal solution found (tolerance 3.00e-03)
Best objective 6.905956869156e+03, best bound 6.905949070491e+03, gap 0.0001%

User-callback calls 1276, time in user-callback 0.00 sec
